c ---- [ banner ] ------------------------------------------------------------
c
c Kissat SAT Solver
c 
c Copyright (c) 2021-2024 Armin Biere University of Freiburg
c Copyright (c) 2019-2021 Armin Biere Johannes Kepler University Linz
c 
c Version 4.0.1 43f02cf3e992cb44653b35e5cb26f93281552ae0
c gcc (Ubuntu 13.2.0-23ubuntu4) 13.2.0 -W -Wall -O3 -DNDEBUG
c Thu Sep 12 12:27:46 CEST 2024 Linux abryzen9 6.8.0-41-generic x86_64
c
c ---- [ parsing ] -----------------------------------------------------------
c
c opened and reading DIMACS file:
c
c   /data/artifact/AMulet2.0_artifact/exp4/cnf_resyn3_64/64_64_U_SP_DT_KS_GenMul_resyn3.cnf
c
c parsed 'p cnf 27177 119586' header
c closing input after reading 2362167 bytes (2 MB)
c finished parsing after 0.03 seconds
c
c ---- [ options ] -----------------------------------------------------------
c
c --stable=0                       (different from default '1')
c
c ---- [ solving ] -----------------------------------------------------------
c
c  seconds switched rate     size/glue tier1  binary           remaining
c         MB reductions conflicts size  tier2     irredundant
c          level restarts redundant glue  trail           variables
c
c *  0.03 10 0 0 0  0 0   0   0 0.0 0 0 0 0 0% 12863 106721 27174 100%
c (  0.06 11 0 0 0  0 0   0   0 0.0 0 0 0 0 0% 12863 106721 27174 100%
c .  0.07 12 0 0 0  0 0   0   0 0.0 0 0 0 0 0% 12859 106721 27174 100%
c f  0.31 16 0 0 0  0 0   0   0 0.0 0 0 0 0 0% 17639 99233 29879 110%
c e  0.49 24 0 0 0  0 0   0   0 0.0 0 0 0 0 0% 11984 107295 21031 77%
c )  0.49 24 0 0 0  0 0   0   0 0.0 0 0 0 0 0% 11984 107295 21031 77%
c {  0.52 24 0 0 0  0 0   0   0 0.0 0 0 2 6 0% 11984 107295 21031 77%
c -  0.89 24 140 0 1 316 48 1000 695 2.8 15 5 3 10 26% 12097 107295 21031 77%
c -  1.25 24 179 0 2 515 47 2001 1401 4.3 25 6 3 11 29% 12120 107295 21031 77%
c d  1.37 24 206 0 2 559 43 2503 1840 4.1 24 6 3 11 29% 12120 107295 21024 77%
c u  1.40 24 206 0 2 559 43 2503 1532 4.1 24 6 3 11 29% 12134 107295 21024 77%
c v  1.43 24 206 0 2 559 43 2503 1298 4.1 24 6 3 11 29% 12134 107295 21024 77%
c w  1.46 24 206 0 2 559 43 2503 1290 4.1 24 6 3 11 29% 12135 107295 21024 77%
c x  1.48 24 206 0 2 559 43 2503 1290 4.1 24 6 3 11 29% 12135 107292 21024 77%
c f  1.54 24 206 0 2 559 43 2503 1290 4.1 24 6 3 11 29% 12752 106038 21630 80%
c u  1.64 21 206 0 2 559 43 2503 1241 4.1 24 6 3 11 29% 12756 106038 21630 80%
c v  1.67 22 206 0 2 559 43 2503 1210 4.1 24 6 3 11 29% 12756 106038 21630 80%
c w  1.70 22 206 0 2 559 43 2503 1205 4.1 24 6 3 11 29% 12756 106038 21630 80%
c =  1.81 22 206 0 2 559 43 2503 1205 4.1 24 6 3 11 29% 12758 106038 21629 80%
c d  1.82 22 206 0 2 559 43 2503 1205 4.1 24 6 3 11 29% 12756 106038 21629 80%
c
c  seconds   switched   rate       size/glue tier1     binary           remaining
c         MB  reductions conflicts       size  tier2       irredundant
c           level restarts    redundant    glue    trail           variables
c
c f  1.88 22 206 0 2 559 43 2503 1205 4.1 24 6 3 11 29% 12842 105907 21673 80%
c -  2.30 26 227 0 3 691 43 3416 1682 4.0 25 6 3 10 29% 12885 105907 21673 80%
c -  3.00 26 282 0 4 924 42 5148 2796 4.0 25 6 3 10 28% 12927 105907 21673 80%
c -  4.02 26 297 0 5 1195 45 7149 3809 4.7 31 7 2 10 28% 12999 105907 21673 80%
c d  4.11 26 302 0 5 1220 43 7709 4186 4.6 30 7 2 10 28% 12957 105907 21623 80%
c u  4.14 26 302 0 5 1220 43 7709 3898 4.6 30 7 2 10 28% 12975 105907 21623 80%
c v  4.20 26 302 0 5 1220 43 7709 3330 4.6 30 7 2 10 28% 12975 105907 21623 80%
c w  4.23 26 302 0 5 1220 43 7709 3325 4.6 30 7 2 10 28% 12975 105907 21623 80%
c x  4.27 26 302 0 5 1220 43 7709 3325 4.6 30 7 2 10 28% 12975 105898 21623 80%
c d  4.27 26 302 0 5 1220 43 7709 3324 4.6 30 7 2 10 28% 12969 105898 21620 80%
c t  4.29 26 302 0 5 1220 43 7709 3324 4.6 30 7 2 10 28% 12944 105898 21620 80%
c f  4.36 26 302 0 5 1220 43 7709 3324 4.6 30 7 2 10 28% 15794 101611 23045 85%
c u  4.39 26 302 0 5 1220 43 7709 3247 4.6 30 7 2 10 28% 15801 101611 23045 85%
c v  4.42 26 302 0 5 1220 43 7709 3136 4.6 30 7 2 10 28% 15802 101611 23045 85%
c w  4.46 26 302 0 5 1220 43 7709 3133 4.6 30 7 2 10 28% 15802 101611 23045 85%
c d  4.47 26 302 0 5 1220 43 7709 3133 4.6 30 7 2 10 28% 15798 101611 23043 85%
c t  4.50 26 302 0 5 1220 43 7709 3133 4.6 30 7 2 10 28% 15708 101611 23043 85%
c f  4.54 26 302 0 5 1220 43 7709 3133 4.6 30 7 2 10 28% 17040 99621 23697 87%
c -  5.03 26 320 0 6 1361 41 9386 4014 4.6 30 7 2 10 27% 17082 99621 23697 87%
c o  5.23 26 318 0 6 1421 40 10046 4576 4.5 29 7 2 10 27% 17108 99621 23697 87%
c
c  seconds   switched    rate        size/glue tier1    binary          remaining
c         MB  reductions   conflicts       size  tier2      irredundant
c           level  restarts     redundant    glue   trail          variables
c
c -  5.86 26 347 0 7 1655 42 11836 5336 5.1 35 7 2 9 27% 17164 99621 23697 87%
c s  5.99 26 338 0 7 1684 40 12513 5908 5.0 34 7 2 9 28% 17181 99265 23697 87%
c e  6.10 26 338 0 7 1684 40 12513 5908 5.0 34 7 2 9 28% 16051 99998 22798 84%
c s  6.10 26 338 0 7 1684 40 12513 5908 5.0 34 7 2 9 28% 16062 99664 22798 84%
c e  6.12 26 338 0 7 1684 40 12513 5908 5.0 34 7 2 9 28% 15953 99760 22744 84%
c ^  6.12 26 338 0 7 1684 40 12513 5908 5.0 34 7 2 9 28% 15953 99760 22744 84%
c -  6.59 26 338 0 8 1859 40 14482 6240 5.0 34 7 2 9 28% 16010 99760 22744 84%
c c  6.90 26 329 0 8 1991 39 15791 7451 4.9 34 7 2 9 28% 16040 99698 22723 84%
c d  6.90 26 329 0 8 1991 39 15791 7427 4.9 34 7 2 9 28% 15507 99698 22429 83%
c u  6.93 26 329 0 8 1991 39 15791 6666 4.9 34 7 2 9 28% 15521 99698 22429 83%
c v  6.96 26 329 0 8 1991 39 15791 5709 4.9 34 7 2 9 28% 15521 99698 22429 83%
c w  7.05 26 329 0 8 1991 39 15791 5680 4.9 34 7 2 9 28% 15521 99698 22429 83%
c =  7.23 26 329 0 8 1991 39 15791 5680 4.9 34 7 2 9 28% 15813 99696 22283 82%
c d  7.24 26 329 0 8 1991 39 15791 5671 4.9 34 7 2 9 28% 15412 99696 22277 82%
c t  7.25 26 329 0 8 1991 39 15791 5671 4.9 34 7 2 9 28% 15335 99696 22277 82%
c f  7.28 26 329 0 8 1991 39 15791 5671 4.9 34 7 2 9 28% 15397 99390 22394 82%
c u  7.31 26 329 0 8 1991 39 15791 5525 4.9 34 7 2 9 28% 15399 99390 22394 82%
c v  7.34 26 329 0 8 1991 39 15791 5384 4.9 34 7 2 9 28% 15399 99390 22394 82%
c w  7.41 26 329 0 8 1991 39 15791 5374 4.9 34 7 2 9 28% 15399 99390 22394 82%
c x  7.44 26 329 0 8 1991 39 15791 5374 4.9 34 7 2 9 28% 15399 99218 22394 82%
c
c  seconds   switched    rate        size/glue tier1    binary          remaining
c         MB  reductions   conflicts       size  tier2      irredundant
c           level  restarts     redundant    glue   trail          variables
c
c t  7.46 26 329 0 8 1991 39 15791 5374 4.9 34 7 2 9 28% 15391 99218 22394 82%
c -  8.58 26 319 0 9 2218 38 17310 5942 4.9 35 7 2 9 29% 15428 99218 22394 82%
c o  9.53 26 318 0 9 2472 37 20052 8477 4.9 35 7 2 9 29% 15466 99218 22394 82%
c -  9.65 26 316 0 10 2510 37 20310 7677 4.9 36 7 2 9 29% 15470 99218 22394 82%
c - 10.69 26 309 0 11 2834 37 23474 9064 4.6 39 9 2 8 29% 15548 99218 22394 82%
c s 10.95 26 315 0 11 2890 35 25024 10466 4.4 38 8 2 8 29% 15571 98941 22394 82%
c e 11.04 26 315 0 11 2890 35 25024 10466 4.4 38 8 2 8 29% 11546 105010 20006 74%
c s 11.05 26 315 0 11 2890 35 25024 10466 4.4 38 8 2 8 29% 11560 104750 20006 74%
c e 11.06 26 315 0 11 2890 35 25024 10466 4.4 38 8 2 8 29% 11490 104817 19973 73%
c ^ 11.06 26 315 0 11 2890 35 25024 10466 4.4 38 8 2 8 29% 11490 104817 19973 73%
c - 11.36 26 315 0 12 3009 35 26790 8716 4.4 37 8 2 8 29% 11534 104817 19973 73%
c d 11.38 26 315 0 12 3010 34 26925 8826 4.4 37 8 2 8 29% 11188 104805 19767 73%
c u 11.41 26 315 0 12 3010 34 26925 7949 4.4 37 8 2 8 29% 11204 104805 19767 73%
c v 11.45 26 315 0 12 3010 34 26925 6947 4.4 37 8 2 8 29% 11204 104805 19767 73%
c w 11.45 26 315 0 12 3010 34 26925 6945 4.4 37 8 2 8 29% 11204 104805 19767 73%
c = 11.71 26 315 0 12 3010 34 26925 6945 4.4 37 8 2 8 29% 13724 104803 18507 68%
c d 11.72 26 315 0 12 3010 34 26925 6778 4.4 37 8 2 8 29% 11070 104803 18506 68%
c t 11.75 26 315 0 12 3010 34 26925 6778 4.4 37 8 2 8 29% 11057 104803 18506 68%
c f 11.83 26 315 0 12 3010 34 26925 6778 4.4 37 8 2 8 29% 11074 104704 18530 68%
c u 11.87 26 315 0 12 3010 34 26925 6538 4.4 37 8 2 8 29% 11076 104704 18530 68%
c
c  seconds   switched     rate        size/glue tier1    binary           remaining
c         MB   reductions   conflicts       size  tier2      irredundant
c           level   restarts     redundant    glue   trail           variables
c
c v 11.89 26 315 0 12 3010 34 26925 6401 4.4 37 8 2 8 29% 11076 104704 18530 68%
c w 11.90 26 315 0 12 3010 34 26925 6397 4.4 37 8 2 8 29% 11076 104704 18530 68%
c x 12.00 26 315 0 12 3010 34 26925 6394 4.4 37 8 2 8 29% 11079 98313 18530 68%
c = 12.26 26 315 0 12 3010 34 26925 6394 4.4 37 8 2 8 29% 13413 98303 17363 64%
c d 12.26 26 315 0 12 3010 34 26925 6331 4.4 37 8 2 8 29% 11027 98303 17363 64%
c f 12.31 26 315 0 12 3010 34 26925 6331 4.4 37 8 2 8 29% 11029 98297 17364 64%
c - 12.82 26 306 0 13 3204 33 30255 8266 4.3 36 8 2 8 29% 11072 98296 17364 64%
c - 13.46 26 298 0 14 3457 32 33862 10231 4.3 37 9 2 8 29% 11157 98295 17364 64%
c - 13.89 26 293 0 15 3606 30 37604 11782 4.2 36 8 2 8 29% 11256 98295 17364 64%
c o 14.16 26 287 0 15 3716 29 40092 13947 4.2 35 8 2 8 29% 11297 98295 17364 64%
c c 14.37 26 286 0 15 3797 29 41254 15021 4.1 35 8 2 8 28% 11407 97552 17242 63%
c d 14.37 26 286 0 15 3797 29 41254 14775 4.1 35 8 2 8 28% 11155 97552 17237 63%
c u 14.42 26 286 0 15 3797 29 41254 12831 4.1 35 8 2 8 28% 11174 97552 17237 63%
c v 14.47 26 286 0 15 3797 29 41254 11912 4.1 35 8 2 8 28% 11174 97552 17237 63%
c w 14.50 26 286 0 15 3797 29 41254 11911 4.1 35 8 2 8 28% 11174 97552 17237 63%
c x 14.55 26 286 0 15 3797 29 41254 11911 4.1 35 8 2 8 28% 11174 91544 17237 63%
c = 14.82 26 286 0 15 3797 29 41254 11911 4.1 35 8 2 8 28% 14902 91544 15373 57%
c d 14.83 26 286 0 15 3797 29 41254 11343 4.1 35 8 2 8 28% 11037 91544 15372 57%
c t 14.84 26 286 0 15 3797 29 41254 11343 4.1 35 8 2 8 28% 10874 91544 15372 57%
c f 14.88 26 286 0 15 3797 29 41254 11343 4.1 35 8 2 8 28% 10878 91525 15377 57%
c
c  seconds   switched     rate         size/glue tier1    binary          remaining
c         MB   reductions   conflicts        size  tier2      irredundant
c           level   restarts      redundant    glue   trail          variables
c
c u 14.92 26 286 0 15 3797 29 41254 10321 4.1 35 8 2 8 28% 10879 91525 15377 57%
c v 14.96 26 286 0 15 3797 29 41254 9613 4.1 35 8 2 8 28% 10879 91525 15377 57%
c w 15.01 26 286 0 15 3797 29 41254 9609 4.1 35 8 2 8 28% 10879 91525 15377 57%
c x 15.07 26 286 0 15 3797 29 41254 9608 4.1 35 8 2 8 28% 10879 79545 15377 57%
c = 15.28 26 286 0 15 3797 29 41254 9608 4.1 35 8 2 8 28% 13435 79543 14099 52%
c d 15.29 26 286 0 15 3797 29 41254 9464 4.1 35 8 2 8 28% 10835 79543 14099 52%
c t 15.30 26 286 0 15 3797 29 41254 9464 4.1 35 8 2 8 28% 10706 79543 14099 52%
c f 15.33 26 286 0 15 3797 29 41254 9464 4.1 35 8 2 8 28% 10706 79516 14107 52%
c - 15.39 26 285 0 16 3824 29 41477 8441 4.2 35 8 2 8 29% 10706 79515 14107 52%
c - 16.07 26 276 0 17 4276 29 45477 10622 4.2 35 9 2 8 29% 10716 79512 14107 52%
c - 16.65 26 270 0 18 4638 28 49600 12615 4.1 35 9 2 8 29% 10732 79512 14107 52%
c s 16.98 26 265 0 18 4799 28 52145 15033 4.0 34 9 2 8 30% 10739 67807 14107 52%
c e 17.04 26 265 0 18 4799 28 52145 15033 4.0 34 9 2 8 30% 9833 69509 13319 49%
c 2 17.04 26 265 0 18 4799 28 52145 15033 4.0 34 9 2 8 30% 9807 69509 13319 49%
c s 17.05 26 265 0 18 4799 28 52145 15033 4.0 34 9 2 8 30% 9815 69243 13319 49%
c e 17.06 26 265 0 18 4799 28 52145 15033 4.0 34 9 2 8 30% 9802 69263 13308 49%
c ^ 17.06 26 265 0 18 4799 28 52145 15033 4.0 34 9 2 8 30% 9802 69263 13308 49%
c - 17.33 26 263 0 19 4978 27 53842 13114 4.0 34 9 2 7 30% 9811 69263 13308 49%
c - 17.84 26 250 0 20 5350 26 58200 14742 3.9 34 9 2 7 29% 9837 69263 13308 49%
c c 17.94 26 249 0 20 5405 27 58886 15326 3.9 33 9 2 7 29% 9880 69108 13282 49%
c
c  seconds   switched     rate         size/glue tier1    binary         remaining
c         MB   reductions   conflicts        size  tier2     irredundant
c           level   restarts      redundant    glue   trail         variables
c
c d 17.94 26 249 0 20 5405 27 58886 15277 3.9 33 9 2 7 29% 9828 69108 13282 49%
c u 17.99 26 249 0 20 5405 27 58886 13240 3.9 33 9 2 7 29% 9833 69108 13282 49%
c v 18.05 26 249 0 20 5405 27 58886 11584 3.9 33 9 2 7 29% 9834 69108 13282 49%
c w 18.08 26 249 0 20 5405 27 58886 11560 3.9 33 9 2 7 29% 9834 69108 13282 49%
c x 18.15 26 249 0 20 5405 27 58886 11559 3.9 33 9 2 7 29% 9834 68647 13282 49%
c d 18.44 26 249 0 20 5405 27 58886 11558 3.9 33 9 2 7 29% 9830 68647 13280 49%
c t 18.45 26 249 0 20 5405 27 58886 11558 3.9 33 9 2 7 29% 9784 68647 13280 49%
c f 18.47 26 249 0 20 5405 27 58886 11558 3.9 33 9 2 7 29% 9769 68567 13296 49%
c c 18.50 26 249 0 20 5405 27 58886 11558 3.9 33 9 2 7 29% 9775 68565 13294 49%
c d 18.51 26 249 0 20 5405 27 58886 11558 3.9 33 9 2 7 29% 9771 68565 13294 49%
c u 18.54 26 249 0 20 5405 27 58886 11123 3.9 33 9 2 7 29% 9766 68565 13294 49%
c v 18.57 26 249 0 20 5405 27 58886 10874 3.9 33 9 2 7 29% 9766 68565 13294 49%
c w 18.60 26 249 0 20 5405 27 58886 10859 3.9 33 9 2 7 29% 9766 68565 13294 49%
c x 18.69 26 249 0 20 5405 27 58886 10853 3.9 33 9 2 7 29% 9770 67994 13294 49%
c t 18.71 26 249 0 20 5405 27 58886 10853 3.9 33 9 2 7 29% 9768 67994 13294 49%
c f 18.71 26 249 0 20 5405 27 58886 10853 3.9 33 9 2 7 29% 9765 67992 13295 49%
c - 19.34 26 244 0 21 5869 27 62672 12602 3.9 34 9 2 7 29% 9794 67992 13295 49%
c - 20.13 26 238 0 22 6374 26 67254 14863 3.9 34 9 2 7 30% 9808 67992 13295 49%
c o 20.67 26 234 0 22 6661 26 70095 17528 3.8 35 9 2 7 30% 9826 67992 13295 49%
c - 20.94 26 234 0 23 6842 26 71944 15361 3.8 35 9 1 7 30% 9849 67992 13295 49%
c
c  seconds   switched     rate         size/glue tier1    binary         remaining
c         MB   reductions   conflicts        size  tier2     irredundant
c           level   restarts      redundant    glue   trail         variables
c
c - 21.69 26 227 0 24 7327 26 76739 16290 3.8 35 9 1 7 30% 9872 67992 13295 49%
c d 22.13 26 226 0 24 7605 26 79982 19113 3.8 35 9 1 7 30% 9828 67991 13259 49%
c u 22.17 26 226 0 24 7605 26 79982 17447 3.8 35 9 1 7 30% 9856 67991 13259 49%
c v 22.26 26 226 0 24 7605 26 79982 14593 3.8 35 9 1 7 30% 9871 67991 13259 49%
c w 22.33 26 226 0 24 7605 26 79982 14592 3.8 35 9 1 7 30% 9871 67991 13259 49%
c x 22.40 26 226 0 24 7605 26 79982 14576 3.8 35 9 1 7 30% 9872 67682 13259 49%
c = 22.77 26 226 0 24 7605 26 79982 14576 3.8 35 9 1 7 30% 10018 67682 13186 49%
c d 22.77 26 226 0 24 7605 26 79982 14524 3.8 35 9 1 7 30% 9861 67682 13184 49%
c t 22.78 26 226 0 24 7605 26 79982 14524 3.8 35 9 1 7 30% 9807 67682 13184 49%
c f 22.79 26 226 0 24 7605 26 79982 14524 3.8 35 9 1 7 30% 9802 67667 13187 49%
c c 22.83 26 226 0 24 7605 26 79982 14518 3.8 35 9 1 7 30% 9810 67635 13183 49%
c d 22.83 26 226 0 24 7605 26 79982 14518 3.8 35 9 1 7 30% 9802 67635 13183 49%
c u 22.86 26 226 0 24 7605 26 79982 14064 3.8 35 9 1 7 30% 9815 67635 13183 49%
c v 22.92 26 226 0 24 7605 26 79982 13430 3.8 35 9 1 7 30% 9819 67635 13183 49%
c w 23.04 26 226 0 24 7605 26 79982 13388 3.8 35 9 1 7 30% 9819 67635 13183 49%
c x 23.12 26 226 0 24 7605 26 79982 13387 3.8 35 9 1 7 30% 9821 67192 13183 49%
c = 23.19 26 226 0 24 7605 26 79982 13387 3.8 35 9 1 7 30% 9829 67192 13179 48%
c d 23.19 26 226 0 24 7605 26 79982 13379 3.8 35 9 1 7 30% 9819 67192 13178 48%
c t 23.20 26 226 0 24 7605 26 79982 13379 3.8 35 9 1 7 30% 9813 67192 13178 48%
c - 23.49 26 224 0 25 7788 25 81637 12344 3.8 35 9 1 6 30% 9818 67191 13178 48%
c
c  seconds   switched     rate         size/glue tier1    binary         remaining
c         MB   reductions   conflicts        size  tier2     irredundant
c           level   restarts      redundant    glue   trail         variables
c
c i 23.59 26 221 0 25 7858 25 82862 13463 3.8 35 9 1 6 30% 9835 67190 13177 48%
c - 23.83 26 218 0 26 8025 24 86638 14154 3.7 34 9 1 6 30% 9871 67187 13177 48%
c i 24.12 26 216 0 26 8233 24 88730 16115 3.7 34 9 1 6 30% 9882 67187 13176 48%
c i 24.15 26 215 0 26 8256 24 88962 16321 3.7 34 9 1 6 30% 9886 67187 13175 48%
c i 24.55 26 212 0 26 8527 24 91720 18918 3.7 34 9 1 6 30% 9899 67187 13174 48%
c - 24.55 26 212 0 27 8527 24 91738 15757 3.7 34 9 1 6 30% 9890 67187 13174 48%
c i 24.94 26 209 0 27 8782 24 94723 18569 3.7 33 9 1 6 30% 9900 67184 13173 48%
c i 25.03 26 208 0 27 8839 24 95443 19237 3.6 33 9 1 6 30% 9906 67184 13172 48%
c s 25.10 26 208 0 27 8892 24 95876 19656 3.6 33 9 1 6 30% 9907 66976 13172 48%
c e 25.18 27 208 0 27 8892 24 95876 19656 3.6 33 9 1 6 30% 7514 72951 11849 44%
c 2 25.18 27 208 0 27 8892 24 95876 19656 3.6 33 9 1 6 30% 7513 72951 11849 44%
c s 25.19 27 208 0 27 8892 24 95876 19656 3.6 33 9 1 6 30% 7529 72721 11849 44%
c e 25.20 27 208 0 27 8892 24 95876 19656 3.6 33 9 1 6 30% 7485 72828 11826 44%
c ^ 25.20 27 208 0 27 8892 24 95876 19656 3.6 33 9 1 6 30% 7485 72828 11826 44%
c - 25.34 26 207 0 28 9000 24 96934 13741 3.6 33 9 1 6 30% 7495 72824 11826 44%
c - 25.82 26 199 0 29 9321 23 102225 15573 3.6 32 9 1 6 30% 7517 72824 11826 44%
c d 26.17 26 197 0 29 9603 23 104639 17858 3.5 32 9 1 6 30% 7508 72824 11817 43%
c b 26.18 26 197 0 29 9603 23 104639 17858 3.5 32 9 1 6 30% 7508 72824 11816 43%
c u 26.21 26 197 0 29 9603 23 104639 16185 3.5 32 9 1 6 30% 7548 72824 11816 43%
c v 26.28 26 197 0 29 9603 23 104639 13586 3.5 32 9 1 6 30% 7556 72824 11816 43%
c
c  seconds   switched     rate          size/glue tier1    binary         remaining
c         MB   reductions   conflicts         size  tier2     irredundant
c           level   restarts       redundant    glue   trail         variables
c
c w 26.34 26 197 0 29 9603 23 104639 13576 3.5 32 9 1 6 30% 7556 72824 11816 43%
c x 26.40 26 197 0 29 9603 23 104639 13576 3.5 32 9 1 6 30% 7559 72785 11816 43%
c = 26.79 26 197 0 29 9603 23 104639 13576 3.5 32 9 1 6 30% 7878 72614 11651 43%
c d 26.79 26 197 0 29 9603 23 104639 13432 3.5 32 9 1 6 30% 7524 72609 11651 43%
c t 26.80 26 197 0 29 9603 23 104639 13432 3.5 32 9 1 6 30% 7270 72609 11651 43%
c f 26.84 26 197 0 29 9603 23 104639 13432 3.5 32 9 1 6 30% 7275 72523 11659 43%
c u 26.87 26 197 0 29 9603 23 104639 12904 3.5 32 9 1 6 30% 7298 72523 11659 43%
c v 26.91 26 197 0 29 9603 23 104639 12279 3.5 32 9 1 6 30% 7304 72523 11659 43%
c w 27.04 26 197 0 29 9603 23 104639 12063 3.5 32 9 1 6 30% 7304 72523 11659 43%
c = 27.41 26 197 0 29 9603 23 104639 12063 3.5 32 9 1 6 30% 7442 72428 11582 43%
c d 27.41 26 197 0 29 9603 23 104639 12002 3.5 32 9 1 6 30% 7300 72426 11582 43%
c t 27.42 26 197 0 29 9603 23 104639 12002 3.5 32 9 1 6 30% 7239 72426 11582 43%
c f 27.43 26 197 0 29 9603 23 104639 12002 3.5 32 9 1 6 30% 7236 72419 11583 43%
c i 27.52 26 196 0 29 9685 23 105274 12594 3.5 32 9 1 6 30% 7241 72419 11582 43%
c - 27.79 26 194 0 30 9880 23 107610 12236 3.5 32 9 1 7 31% 7211 72416 11582 43%
c i 28.03 26 192 0 30 10059 23 109519 14023 3.5 32 9 1 7 31% 7220 72415 11581 43%
c o 28.10 26 192 0 30 10100 22 110099 14560 3.5 32 9 1 7 31% 7226 72414 11581 43%
c i 28.13 26 192 0 30 10127 23 110286 14726 3.5 32 9 1 7 31% 7233 72414 11580 43%
c i 28.20 26 191 0 30 10174 22 111027 15390 3.4 32 9 1 7 31% 7237 72414 11579 43%
c i 28.22 26 190 0 30 10178 22 111475 15802 3.4 32 9 1 7 31% 7240 72414 11576 43%
c
c  seconds   switched      rate          size/glue tier1    binary         remaining
c         MB   reductions    conflicts         size  tier2     irredundant
c           level   restarts        redundant    glue   trail         variables
c
c i 28.22 26 190 0 30 10179 22 111650 15942 3.4 31 9 1 7 31% 7248 72414 11575 43%
c i 28.26 26 190 0 30 10197 22 111988 16246 3.4 31 9 1 7 31% 7255 72414 11574 43%
c i 28.27 26 189 0 30 10202 22 112316 16512 3.4 31 9 1 7 31% 7267 72414 11573 43%
c i 28.28 26 189 0 30 10203 22 112557 16733 3.4 31 9 1 7 31% 7272 72412 11572 43%
c i 28.28 26 189 0 30 10206 22 112761 16911 3.4 31 9 1 7 31% 7276 72412 11569 43%
c - 28.29 26 188 0 31 10206 22 113087 14214 3.4 31 9 1 7 31% 7225 72412 11569 43%
c i 28.34 26 188 0 31 10226 22 113541 14654 3.4 31 9 1 7 31% 7227 72412 11568 43%
c i 28.36 26 188 0 31 10237 22 113681 14783 3.4 31 9 1 7 31% 7229 72412 11567 43%
c i 28.40 26 187 0 31 10267 22 114171 15234 3.4 31 9 1 7 31% 7235 72412 11566 43%
c i 28.40 26 187 0 31 10267 22 114251 15280 3.4 31 9 1 7 31% 7246 72412 11563 43%
c i 28.40 26 187 0 31 10267 22 114262 15282 3.4 31 9 1 7 31% 7249 72412 11562 43%
c i 28.43 26 185 0 31 10282 21 115620 16410 3.4 31 9 1 7 30% 7291 72405 11560 43%
c i 28.45 26 184 0 31 10287 21 116052 16782 3.4 31 9 1 7 30% 7308 72405 11559 43%
c i 28.47 26 180 0 31 10294 21 117814 18257 3.3 30 9 1 7 30% 7331 72405 11558 43%
c - 28.48 26 179 0 32 10294 21 118654 15031 3.3 30 9 1 7 29% 7272 72405 11558 43%
c i 28.50 26 176 0 32 10300 20 119891 16111 3.3 30 9 1 7 29% 7283 72405 11557 43%
c i 28.50 26 176 0 32 10300 20 119895 16113 3.3 30 9 1 7 29% 7283 72405 11556 43%
c i 28.51 26 175 0 32 10300 20 120121 16271 3.3 30 9 1 7 29% 7295 72405 11546 42%
c i 28.51 26 175 0 32 10300 20 120143 16279 3.3 30 9 1 7 29% 7298 72405 11545 42%
c i 28.51 26 175 0 32 10300 20 120216 16337 3.3 30 9 1 7 29% 7303 72405 11522 42%
c
c  seconds   switched      rate          size/glue tier1    binary         remaining
c         MB   reductions    conflicts         size  tier2     irredundant
c           level   restarts        redundant    glue   trail         variables
c
c i 28.51 26 175 0 32 10300 20 120246 16357 3.3 30 9 1 7 29% 7305 72405 11516 42%
c } 28.51 26 175 0 32 10300 20 120252 16357 3.3 30 9 1 7 29% 7305 72405 11514 42%
c 0 28.51 26 175 0 32 10300 20 120252 16357 3.3 30 9 1 7 29% 7305 72405 11514 42%
c
c ---- [ result ] ------------------------------------------------------------
c
s UNSATISFIABLE
c
c ---- [ profiling ] ---------------------------------------------------------
c
c          20.79   72.92 %  search
c          20.79   72.92 %  focused
c           7.20   25.27 %  simplify
c           6.95   24.40 %  probe
c           2.82    9.89 %  sweep
c           2.60    9.14 %  vivify
c           0.64    2.25 %  factor
c           0.49    1.73 %  eliminate
c           0.43    1.52 %  preprocess
c           0.40    1.41 %  substitute
c           0.31    1.08 %  congruence
c           0.18    0.62 %  fastel
c           0.16    0.54 %  reduce
c           0.12    0.42 %  transitive
c           0.09    0.33 %  subsume
c           0.06    0.21 %  backbone
c           0.05    0.18 %  lucky
c           0.03    0.11 %  parse
c =============================================
c          28.51  100.00 %  total
c
c ---- [ statistics ] --------------------------------------------------------
c
c chronological:                         4180                3 %  conflicts
c conflicts:                           120252             4218.11 per second
c congruent:                              175                1 %  variables
c decisions:                          2622630               21.81 per conflict
c eliminated:                           14367               53 %  variables
c factored:                              5618               21 %  variables
c fast_eliminated:                       8848               62 %  eliminated
c fast_strengthened:                       83                7 %  per strengthened
c fast_subsumed:                           78                1 %  per subsumed
c iterations:                              31                0 %  variables
c propagations:                     127713340          4479834    per second
c reductions:                              32             3758    interval
c reordered:                                5            24050    interval
c restarts:                             10300               12    interval
c strengthened:                          1198                0 %  checks
c substituted:                           6821               25 %  variables
c subsumed:                             13627                1 %  checks
c switched:                                 0                0    interval
c vivified:                             62054               14 %  checks
c
c ---- [ glue usage ] --------------------------------------------------------
c
c focused glue 1   used 148306 clauses 52.16% accumulated 52.16% tier1
c focused glue 2   used  58355 clauses 20.53% accumulated 72.69%
c focused glue 3-5 used  41168 clauses 14.48% accumulated 87.17%
c focused glue 6   used   6522 clauses  2.29% accumulated 89.47%
c focused glue 7   used   4963 clauses  1.75% accumulated 91.21% tier2
c
c ---- [ resources ] ---------------------------------------------------------
c
c maximum-resident-set-size:         27799552 bytes         27 MB
c process-time:                            29s              28.51 seconds
c
c ---- [ shutting down ] -----------------------------------------------------
c
c exit 20
